\* Problem: Unknown *\

Maximize
 obj: + xp_0_0 + xp_0_1 + xp_0_2 + xp_0_3 + xp_0_4 + xp_0_5 + xp_0_6
 + xp_1_0 + xp_1_1 + xp_2_0 + xp_2_1 + xp_2_2 + xp_2_3 + xp_2_4 + xp_2_5
 + xp_3_0 + xp_3_1 + xp_3_2 + xp_3_3 + xp_4_0 + xp_5_0 + xp_6_0 + xp_6_1
 + xp_7_0 + xp_7_1 + xp_8_0 + xp_9_0 + xp_10_0 + xp_10_1 + xp_11_0
 + xp_11_1 + xp_11_2 + xp_11_3 + xp_12_0 + xp_13_0 + xp_13_1 + xp_14_0
 + xp_14_1 + xp_15_0 + xp_16_0 + xp_16_1 + xp_17_0 + xp_17_1 + xp_17_2
 + xp_17_3 + xp_17_4 + xp_17_5 + xp_17_6 + xp_18_0 + xp_18_1 + xp_18_2
 + xp_18_3 + xp_19_0 + xp_19_1 + xp_19_2 + xp_19_3 + xp_19_4 + xp_19_5
 + xp_20_0 + xp_20_1 + xp_20_2 + xp_20_3 + xp_21_0 + xp_21_1 + xp_21_2
 + xp_21_3 + xp_21_4 + xp_22_0 + xp_22_1 + xp_22_2 + xp_22_3 + xp_22_4
 + xp_23_0 + xp_23_1 + xp_23_2 + xp_23_3 + xp_23_4

Subject To
 r_1: 0 xp_0_0 <= 29.4574468085106
 r_2: + xp_22_3 + xp_18_1 + xp_2_5 + xp_2_3 <= 28.8106343283582
 r_3: + xp_23_3 + xp_21_3 + xp_6_1 <= 30
 r_4: + xp_18_3 + xp_17_2 + xp_15_0 <= 30
 r_5: + xp_18_0 <= 28.3056478405316
 r_6: + xp_18_2 <= 29.7154017857143
 r_7: + xp_20_3 <= 29.4574468085106
 r_8: + xp_17_5 + xp_17_3 + xp_11_3 + xp_3_3 + xp_3_2 + xp_2_1
 <= 28.8106343283582
 r_9: + xp_23_2 + xp_22_4 + xp_17_4 + xp_11_1 + xp_3_1
 <= 29.7154017857143
 r_10: + xp_17_6 + xp_3_0 <= 29.7154017857143
 r_11: + xp_18_2 + xp_11_2 <= 28.3056478405316
 r_12: + xp_11_0 <= 29.7154017857143
 r_13: 0 xp_0_0 <= 29.7154017857143
 r_14: + xp_21_2 + xp_19_4 + xp_14_0 + xp_0_3 + xp_0_1
 <= 28.8106343283582
 r_15: + xp_21_0 + xp_19_3 <= 29.4574468085106
 r_16: + xp_22_2 + xp_21_1 + xp_0_6 + xp_0_4 + xp_0_2
 <= 29.4574468085106
 r_17: + xp_0_0 <= 28.3056478405316
 r_18: + xp_21_3 + xp_4_0 <= 29.4574468085106
 r_19: + xp_19_0 <= 29.4574468085106
 r_20: + xp_21_4 + xp_19_5 + xp_19_2 + xp_19_1 + xp_14_1 + xp_0_5
 <= 29.4574468085106
 r_21: + xp_20_1 <= 28.8106343283582
 r_22: + xp_21_4 + xp_21_2 + xp_7_1 <= 28.8106343283582
 r_23: + xp_22_3 + xp_17_3 + xp_3_3 <= 28.8106343283582
 r_24: + xp_23_4 + xp_17_5 + xp_3_2 + xp_0_5 + xp_0_3
 <= 28.8106343283582
 r_25: 0 xp_0_0 <= 28.8106343283582
 r_26: + xp_18_1 + xp_0_1 <= 28.3056478405316
 r_27: + xp_11_3 <= 28.8106343283582
 r_28: + xp_19_4 + xp_19_2 + xp_10_1 <= 28.8106343283582
 r_29: + xp_20_2 <= 29.4574468085106
 r_30: + xp_2_0 <= 28.8106343283582
 r_31: + xp_23_3 + xp_23_2 + xp_22_4 + xp_17_4 + xp_6_1 + xp_3_1
 + xp_2_5 + xp_2_4 <= 30
 r_32: + xp_2_2 <= 30
 r_33: + xp_11_1 + xp_2_3 <= 30
 r_34: + xp_19_5 + xp_19_3 + xp_2_1 <= 29.7154017857143
 r_35: 0 xp_0_0 <= 29.4574468085106
 r_36: + xp_9_0 <= 28.8106343283582
 r_37: + xp_21_1 + xp_13_1 + xp_0_6 <= 30
 r_38: + xp_1_1 <= 30
 r_39: + xp_17_3 + xp_17_1 + xp_3_3 + xp_0_4 <= 30
 r_40: + xp_0_2 <= 28.3056478405316
 r_41: + xp_12_0 + xp_2_4 <= 28.8106343283582
 r_42: + xp_21_1 <= 30
 r_43: + xp_22_4 + xp_16_0 <= 30
 r_44: + xp_23_4 + xp_23_3 + xp_23_2 + xp_23_1 + xp_16_1 <= 30
 r_45: + xp_17_5 + xp_17_4 + xp_3_2 + xp_3_1 + xp_2_5 <= 30
 r_46: + xp_0_6 + xp_0_5 + xp_0_3 <= 28.3056478405316
 r_47: + xp_22_1 + xp_16_1 + xp_13_1 <= 30
 r_48: + xp_13_0 <= 30
 r_49: 0 xp_0_0 <= 30
 r_50: 0 xp_0_0 <= 28.3056478405316
 r_51: + xp_1_1 <= 30
 r_52: + xp_8_0 <= 30
 r_53: + xp_1_0 <= 30
 r_54: + xp_18_3 + xp_0_4 <= 28.3056478405316
 r_55: + xp_2_5 <= 30
 r_56: 0 xp_0_0 <= 29.7154017857143
 r_57: + xp_22_2 <= 28.3056478405316
 r_58: + xp_23_4 + xp_5_0 <= 28.3056478405316
 r_59: + xp_22_0 + xp_17_1 <= 28.3056478405316
 r_60: + xp_23_1 + xp_6_0 <= 28.3056478405316
 r_61: + xp_23_0 + xp_22_1 <= 28.3056478405316
 r_62: + xp_17_0 <= 28.3056478405316
 r_63: + xp_23_3 + xp_22_3 + xp_17_2 + xp_11_2 + xp_6_1
 <= 28.3056478405316
 r_64: + xp_23_2 + xp_22_4 + xp_17_6 + xp_17_5 + xp_17_4 + xp_17_3
 <= 28.3056478405316
 r_65: + xp_21_4 + xp_20_1 + xp_19_2 + xp_14_1 + xp_10_1 + xp_7_1
 + xp_2_2 + xp_0_5 <= 28.8106343283582
 r_66: + xp_20_2 + xp_19_5 + xp_7_0 <= 30
 r_67: + xp_20_3 + xp_19_1 + xp_10_0 <= 29.7154017857143
 r_68: + xp_20_0 <= 29.4574468085106

Bounds
 0 <= xp_0_0 <= 28.1670073531307
 0 <= xp_0_1 <= 7.54579599233354
 0 <= xp_0_2 <= 12.2504974655369
 0 <= xp_0_3 <= 4.42972883889441
 0 <= xp_0_4 <= 3.39103978774804
 0 <= xp_0_5 <= 3.39103978774804
 0 <= xp_0_6 <= 3.39103978774804
 0 <= xp_1_0 <= 18.5030390498578
 0 <= xp_1_1 <= 16.5274870903115
 0 <= xp_2_0 <= 22.1995911762432
 0 <= xp_2_1 <= 3.39103978774804
 0 <= xp_2_2 <= 1.85335244975496
 0 <= xp_2_3 <= 1.85335244975496
 0 <= xp_2_4 <= 1.85335244975496
 0 <= xp_2_5 <= 3.39103978774804
 0 <= xp_3_0 <= 21.5885936272867
 0 <= xp_3_1 <= 1.86353235119778
 0 <= xp_3_2 <= 1.86353235119778
 0 <= xp_3_3 <= 6.78207957549607
 0 <= xp_4_0 <= 26.0692287554748
 0 <= xp_5_0 <= 26.0692287554748
 0 <= xp_6_0 <= 20.5295176449364
 0 <= xp_6_1 <= 2.93278823499092
 0 <= xp_7_0 <= 19.6741210763974
 0 <= xp_7_1 <= 2.81058872519963
 0 <= xp_8_0 <= 20.203652285493
 0 <= xp_9_0 <= 18.7372581679975
 0 <= xp_10_0 <= 16.3951008969978
 0 <= xp_10_1 <= 2.34215727099969
 0 <= xp_11_0 <= 27.1283183019843
 0 <= xp_11_1 <= 15.4582312065184
 0 <= xp_11_2 <= 8.67615163102232
 0 <= xp_11_3 <= 8.04479427918024
 0 <= xp_12_0 <= 17.5967294099455
 0 <= xp_13_0 <= 14.9694399494328
 0 <= xp_13_1 <= 2.13849142134754
 0 <= xp_14_0 <= 12.2199509791288
 0 <= xp_14_1 <= 4.07331699304294
 0 <= xp_15_0 <= 16.13033529245
 0 <= xp_16_0 <= 13.5437790018678
 0 <= xp_16_1 <= 1.9348255716954
 0 <= xp_17_0 <= 28.2790201793996
 0 <= xp_17_1 <= 2.27087083258165
 0 <= xp_17_2 <= 2.27087083258165
 0 <= xp_17_3 <= 2.27087083258165
 0 <= xp_17_4 <= 2.27087083258165
 0 <= xp_17_5 <= 2.27087083258165
 0 <= xp_17_6 <= 5.66191062032969
 0 <= xp_18_0 <= 23.0346143777374
 0 <= xp_18_1 <= 7.44398341374619
 0 <= xp_18_2 <= 10.8350232014942
 0 <= xp_18_3 <= 2.02647181299908
 0 <= xp_19_0 <= 29.0936903600877
 0 <= xp_19_1 <= 3.93074411620686
 0 <= xp_19_2 <= 3.93074411620686
 0 <= xp_19_3 <= 1.96537205810343
 0 <= xp_19_4 <= 1.96537205810343
 0 <= xp_19_5 <= 1.96537205810343
 0 <= xp_20_0 <= 27.464356780791
 0 <= xp_20_1 <= 5.2545789210254
 0 <= xp_20_2 <= 3.72707826655472
 0 <= xp_20_3 <= 5.59061739983208
 0 <= xp_21_0 <= 27.0162919115563
 0 <= xp_21_1 <= 8.30955988372803
 0 <= xp_21_2 <= 1.63950669866
 0 <= xp_21_3 <= 1.63950669866
 0 <= xp_21_4 <= 1.63950669866
 0 <= xp_22_0 <= 26.608960212252
 0 <= xp_22_1 <= 3.39103978774804
 0 <= xp_22_2 <= 1.43584084900785
 0 <= xp_22_3 <= 5.7433633960314
 0 <= xp_22_4 <= 1.43584084900785
 0 <= xp_23_0 <= 26.608960212252
 0 <= xp_23_1 <= 6.26272148576374
 0 <= xp_23_2 <= 1.43584084900785
 0 <= xp_23_3 <= 2.8716816980157
 0 <= xp_23_4 <= 1.43584084900785

End
